benchmark_instances/dzn_benchmark_instances/benchmark_instance_11-5.dzn
% Input: sequence of points
seq_points = [|2,1
              |7,1
              |1,2
              |2,2
              |7,2
              |8,2
              |8,3
              |9,3
              |5,4
              |6,4
              |9,4
              |4,5
              |5,5
              |6,5
              |10,5
              |4,6
              |9,6
              |10,6
              |1,7
              |2,7
              |9,7
              |10,7
              |1,8
              |2,8
              |5,8
              |10,8
              |5,9
              |6,9
              |1,10
              |6,10
              |9,10
              |10,10
              |11,0
              |11,4
              |11,6
              |9,11
              |10,11
              |11,11
              |0,11
              |0,0
             |];

num_points = 40;
