benchmark_instances/lp_benchmark_instances/benchmark_instance_11-5.lp
% Input: sequence of points
point(2,1).
point(7,1).
point(1,2).
point(2,2).
point(7,2).
point(8,2).
point(8,3).
point(9,3).
point(5,4).
point(6,4).
point(9,4).
point(4,5).
point(5,5).
point(6,5).
point(10,5).
point(4,6).
point(9,6).
point(10,6).
point(1,7).
point(2,7).
point(9,7).
point(10,7).
point(1,8).
point(2,8).
point(5,8).
point(10,8).
point(5,9).
point(6,9).
point(1,10).
point(6,10).
point(9,10).
point(10,10).
point(11,0).
point(11,4).
point(11,6).
point(9,11).
point(10,11).
point(11,11).
point(0,11).
point(0,0).
